N = 10;
H = 6;
T = 2;

avail = array3d(1..N, 1..H, 1..T, [2, 10, 2, 1, 1, 1, 5, 4, 10, 9, 6, 6, 2, 8, 9, 2, 6, 1, 6, 1, 5, 10, 4, 4, 8, 9, 0, 7, 10, 3, 10, 4, 3, 10, 8, 7, 0, 7, 10, 9, 1, 5, 3, 3, 5, 9, 10, 2, 7, 5, 9, 6, 9, 2, 4, 4, 6, 8, 10, 5, 10, 5, 9, 0, 1, 2, 9, 7, 8, 5, 8, 9, 4, 2, 5, 1, 1, 7, 5, 8, 0, 10, 10, 9, 1, 6, 6, 6, 10, 8, 0, 10, 7, 5, 1, 10, 6, 0, 6, 2, 7, 0, 1, 5, 4, 2, 1, 10, 10, 2, 7, 2, 6, 10, 6, 6, 0, 1, 0, 4]);

r = array2d(1..H, 1..T, [4, 3, 4, 4, 1, 1, 3, 4, 4, 5, 1, 2]);
